ITEM: TIMESTEP
0
ITEM: NUMBER OF ATOMS
2
ITEM: BOX BOUNDS pp pp pp
-4.0000000000000000e+00 4.0000000000000000e+00
-4.0000000000000000e+00 4.0000000000000000e+00
-4.0000000000000000e+00 4.0000000000000000e+00
ITEM: ATOMS id type xs ys zs
1 1 0.429846 0.5 0.5
2 1 0.570154 0.5 0.5
ITEM: TIMESTEP
1000
ITEM: NUMBER OF ATOMS
2
ITEM: BOX BOUNDS pp pp pp
-4.0000000000000000e+00 4.0000000000000000e+00
-4.0000000000000000e+00 4.0000000000000000e+00
-4.0000000000000000e+00 4.0000000000000000e+00
ITEM: ATOMS id type xs ys zs
1 1 0.486148 0.5 0.5
2 1 0.138852 0.5 0.5
ITEM: TIMESTEP
2000
ITEM: NUMBER OF ATOMS
2
ITEM: BOX BOUNDS pp pp pp
-4.0000000000000000e+00 4.0000000000000000e+00
-4.0000000000000000e+00 4.0000000000000000e+00
-4.0000000000000000e+00 4.0000000000000000e+00
ITEM: ATOMS id type xs ys zs
1 1 0.849598 0.5 0.5
2 1 0.400402 0.5 0.5
ITEM: TIMESTEP
3000
ITEM: NUMBER OF ATOMS
2
ITEM: BOX BOUNDS pp pp pp
-4.0000000000000000e+00 4.0000000000000000e+00
-4.0000000000000000e+00 4.0000000000000000e+00
-4.0000000000000000e+00 4.0000000000000000e+00
ITEM: ATOMS id type xs ys zs
1 1 0.314717 0.5 0.5
2 1 0.560283 0.5 0.5
ITEM: TIMESTEP
4000
ITEM: NUMBER OF ATOMS
2
ITEM: BOX BOUNDS pp pp pp
-4.0000000000000000e+00 4.0000000000000000e+00
-4.0000000000000000e+00 4.0000000000000000e+00
-4.0000000000000000e+00 4.0000000000000000e+00
ITEM: ATOMS id type xs ys zs
1 1 0.339729 0.5 0.5
2 1 0.160271 0.5 0.5
ITEM: TIMESTEP
5000
ITEM: NUMBER OF ATOMS
2
ITEM: BOX BOUNDS pp pp pp
-4.0000000000000000e+00 4.0000000000000000e+00
-4.0000000000000000e+00 4.0000000000000000e+00
-4.0000000000000000e+00 4.0000000000000000e+00
ITEM: ATOMS id type xs ys zs
1 1 0.870443 0.5 0.5
2 1 0.254557 0.5 0.5
ITEM: TIMESTEP
6000
ITEM: NUMBER OF ATOMS
2
ITEM: BOX BOUNDS pp pp pp
-4.0000000000000000e+00 4.0000000000000000e+00
-4.0000000000000000e+00 4.0000000000000000e+00
-4.0000000000000000e+00 4.0000000000000000e+00
ITEM: ATOMS id type xs ys zs
1 1 0.168814 0.5 0.5
2 1 0.581186 0.5 0.5
ITEM: TIMESTEP
7000
ITEM: NUMBER OF ATOMS
2
ITEM: BOX BOUNDS pp pp pp
-4.0000000000000000e+00 4.0000000000000000e+00
-4.0000000000000000e+00 4.0000000000000000e+00
-4.0000000000000000e+00 4.0000000000000000e+00
ITEM: ATOMS id type xs ys zs
1 1 0.291703 0.5 0.5
2 1 0.0832968 0.5 0.5
ITEM: TIMESTEP
8000
ITEM: NUMBER OF ATOMS
2
ITEM: BOX BOUNDS pp pp pp
-4.0000000000000000e+00 4.0000000000000000e+00
-4.0000000000000000e+00 4.0000000000000000e+00
-4.0000000000000000e+00 4.0000000000000000e+00
ITEM: ATOMS id type xs ys zs
1 1 0.891462 0.5 0.5
2 1 0.108538 0.5 0.5
ITEM: TIMESTEP
9000
ITEM: NUMBER OF ATOMS
2
ITEM: BOX BOUNDS pp pp pp
-4.0000000000000000e+00 4.0000000000000000e+00
-4.0000000000000000e+00 4.0000000000000000e+00
-4.0000000000000000e+00 4.0000000000000000e+00
ITEM: ATOMS id type xs ys zs
1 1 0.0229649 0.5 0.5
2 1 0.602035 0.5 0.5
ITEM: TIMESTEP
10000
ITEM: NUMBER OF ATOMS
2
ITEM: BOX BOUNDS pp pp pp
-4.0000000000000000e+00 4.0000000000000000e+00
-4.0000000000000000e+00 4.0000000000000000e+00
-4.0000000000000000e+00 4.0000000000000000e+00
ITEM: ATOMS id type xs ys zs
1 1 0.312781 0.5 0.5
2 1 0.937219 0.5 0.5
