from initCond.py

512 atoms
1 atom types

-4.239359331793306 4.239359331793306 xlo xhi
-4.239359331793306 4.239359331793306 ylo yhi
-4.239359331793306 4.239359331793306 zlo zhi

Atoms

      1       1  2  0   -1.41311978   -0.70655989    0.70655989
      2       1  1  0   -0.70655989   -2.82623955    0.70655989
      3       1  2  0   -0.70655989    3.53279944    1.41311978
      4       1  1  0    2.82623955   -0.70655989    2.11967967
      5       1  2  0   -1.41311978   -2.11967967    2.11967967
      6       1  1  0   -2.11967967    1.41311978   -0.70655989
      7       1  2  0   -2.82623955    1.41311978    1.41311978
      8       1  2  0   -3.53279944   -1.41311978   -2.11967967
      9       1  2  0    0.00000000    0.00000000    0.00000000
     10       1  1  0   -2.11967967   -1.41311978    0.70655989
     11       1  2  0    0.70655989    2.82623955    0.70655989
     12       1  1  0    0.70655989    2.82623955   -0.70655989
     13       1  1  0   -3.53279944    2.11967967    1.41311978
     14       1  1  0    2.11967967    2.11967967   -2.82623955
     15       1  1  0    0.70655989    0.00000000    3.53279944
     16       1  1  0   -1.41311978   -4.23935933   -2.82623955
     17       1  1  0   -0.70655989    0.00000000    0.70655989
     18       1  2  0   -4.23935933   -4.23935933    0.00000000
     19       1  1  0   -3.53279944   -0.70655989   -4.23935933
     20       1  1  0   -0.70655989    2.11967967    0.00000000
     21       1  1  0    1.41311978   -2.82623955   -1.41311978
     22       1  2  0    0.00000000   -0.70655989    2.11967967
     23       1  2  0    1.41311978    2.82623955   -1.41311978
     24       1  1  0    3.53279944   -3.53279944    0.00000000
     25       1  1  0   -1.41311978    3.53279944   -2.11967967
     26       1  1  0   -3.53279944   -1.41311978    0.70655989
     27       1  1  0    3.53279944   -2.11967967   -1.41311978
     28       1  1  0    3.53279944   -4.23935933   -2.11967967
     29       1  2  0   -3.53279944   -2.82623955    0.70655989
     30       1  2  0   -0.70655989   -0.70655989   -4.23935933
     31       1  1  0    2.11967967    2.82623955    0.70655989
     32       1  1  0   -2.82623955    0.00000000    2.82623955
     33       1  2  0    0.00000000    0.70655989   -0.70655989
     34       1  2  0    0.70655989   -2.82623955   -2.11967967
     35       1  2  0    1.41311978   -0.70655989   -0.70655989
     36       1  2  0    2.82623955   -1.41311978    2.82623955
     37       1  2  0   -3.53279944    0.70655989   -1.41311978
     38       1  2  0    0.00000000    0.00000000   -1.41311978
     39       1  1  0    1.41311978   -2.82623955    2.82623955
     40       1  1  0   -1.41311978   -4.23935933   -4.23935933
     41       1  2  0   -2.11967967   -2.82623955   -3.53279944
     42       1  2  0   -3.53279944    2.11967967   -4.23935933
     43       1  2  0   -1.41311978    2.11967967   -2.11967967
     44       1  1  0   -2.11967967   -3.53279944   -1.41311978
     45       1  2  0   -1.41311978   -1.41311978   -1.41311978
     46       1  1  0    2.11967967    0.70655989    2.82623955
     47       1  2  0   -3.53279944    1.41311978   -0.70655989
     48       1  1  0    0.70655989    3.53279944    2.82623955
     49       1  2  0    0.70655989    2.82623955    3.53279944
     50       1  2  0   -2.11967967    1.41311978   -2.11967967
     51       1  1  0    0.70655989   -0.70655989   -2.82623955
     52       1  1  0   -3.53279944   -2.11967967    1.41311978
     53       1  1  0    2.11967967   -2.11967967   -4.23935933
     54       1  2  0    3.53279944   -4.23935933    0.70655989
     55       1  1  0    2.11967967    1.41311978   -0.70655989
     56       1  2  0   -0.70655989   -2.11967967    1.41311978
     57       1  1  0    2.11967967    1.41311978    0.70655989
     58       1  2  0   -3.53279944    1.41311978   -2.11967967
     59       1  2  0   -4.23935933   -2.82623955    0.00000000
     60       1  2  0    1.41311978   -0.70655989   -2.11967967
     61       1  1  0   -3.53279944    2.11967967   -1.41311978
     62       1  2  0   -2.82623955   -3.53279944   -0.70655989
     63       1  2  0   -2.11967967    2.11967967   -1.41311978
     64       1  2  0    1.41311978    3.53279944    2.11967967
     65       1  2  0   -4.23935933   -2.11967967    3.53279944
     66       1  2  0    0.00000000   -3.53279944    0.70655989
     67       1  2  0    0.00000000    0.00000000   -4.23935933
     68       1  2  0   -1.41311978    2.82623955    2.82623955
     69       1  2  0    1.41311978    1.41311978    2.82623955
     70       1  2  0    1.41311978   -0.70655989    0.70655989
     71       1  1  0    1.41311978    2.11967967   -0.70655989
     72       1  2  0    0.70655989   -0.70655989    0.00000000
     73       1  2  0   -4.23935933    1.41311978    0.00000000
     74       1  2  0    0.00000000   -4.23935933   -4.23935933
     75       1  2  0    0.00000000   -2.11967967   -2.11967967
     76       1  2  0    2.82623955    2.11967967   -3.53279944
     77       1  1  0   -4.23935933   -1.41311978    1.41311978
     78       1  1  0   -1.41311978   -2.11967967   -0.70655989
     79       1  1  0    0.00000000   -1.41311978    0.00000000
     80       1  1  0   -3.53279944    3.53279944    0.00000000
     81       1  2  0    3.53279944   -0.70655989    1.41311978
     82       1  2  0   -2.11967967    2.11967967    1.41311978
     83       1  2  0   -3.53279944   -2.82623955   -2.11967967
     84       1  1  0    2.11967967   -2.11967967    2.82623955
     85       1  1  0   -3.53279944   -3.53279944    0.00000000
     86       1  2  0    2.82623955    2.11967967    0.70655989
     87       1  1  0   -4.23935933    0.70655989    3.53279944
     88       1  2  0   -2.11967967   -2.11967967    0.00000000
     89       1  2  0   -4.23935933   -4.23935933    2.82623955
     90       1  1  0    0.00000000   -1.41311978    2.82623955
     91       1  2  0    0.70655989   -2.82623955    0.70655989
     92       1  2  0   -1.41311978   -0.70655989   -2.11967967
     93       1  2  0    0.00000000   -2.82623955   -4.23935933
     94       1  1  0   -1.41311978    3.53279944   -0.70655989
     95       1  2  0    1.41311978   -4.23935933   -2.82623955
     96       1  1  0   -0.70655989    0.70655989    0.00000000
     97       1  1  0    2.82623955   -4.23935933    1.41311978
     98       1  2  0    0.70655989   -3.53279944   -4.23935933
     99       1  1  0    0.70655989    0.70655989   -1.41311978
    100       1  2  0   -0.70655989   -2.82623955    2.11967967
    101       1  1  0    3.53279944    0.70655989    1.41311978
    102       1  1  0    0.70655989    0.70655989    0.00000000
    103       1  1  0    3.53279944   -2.11967967    0.00000000
    104       1  2  0    2.11967967   -2.82623955    2.11967967
    105       1  1  0   -2.11967967   -4.23935933    0.70655989
    106       1  2  0   -2.11967967    0.70655989   -1.41311978
    107       1  1  0   -2.82623955   -4.23935933   -1.41311978
    108       1  2  0    2.11967967   -3.53279944    0.00000000
    109       1  1  0    3.53279944   -2.82623955   -0.70655989
    110       1  1  0    1.41311978   -4.23935933    0.00000000
    111       1  1  0    1.41311978    2.82623955   -2.82623955
    112       1  1  0    3.53279944    3.53279944   -2.82623955
    113       1  2  0   -2.82623955   -2.82623955   -1.41311978
    114       1  2  0   -2.82623955    2.82623955    0.00000000
    115       1  2  0   -1.41311978    0.70655989   -2.11967967
    116       1  1  0   -3.53279944    1.41311978    0.70655989
    117       1  2  0   -2.82623955   -4.23935933    1.41311978
    118       1  1  0   -1.41311978    2.11967967   -3.53279944
    119       1  2  0   -2.82623955   -3.53279944    2.11967967
    120       1  2  0    1.41311978    0.00000000   -1.41311978
    121       1  1  0   -3.53279944   -0.70655989    2.82623955
    122       1  1  0    1.41311978   -4.23935933   -1.41311978
    123       1  2  0    3.53279944    0.00000000    3.53279944
    124       1  2  0   -0.70655989   -4.23935933    2.11967967
    125       1  1  0   -2.11967967   -3.53279944   -2.82623955
    126       1  2  0    0.70655989   -3.53279944   -2.82623955
    127       1  1  0    2.82623955   -1.41311978   -2.82623955
    128       1  2  0   -2.11967967    2.11967967   -4.23935933
    129       1  1  0   -1.41311978   -3.53279944    0.70655989
    130       1  2  0    2.82623955   -0.70655989    3.53279944
    131       1  1  0   -2.82623955    1.41311978    2.82623955
    132       1  2  0   -0.70655989   -4.23935933    0.70655989
    133       1  2  0    0.70655989   -3.53279944    0.00000000
    134       1  1  0    2.11967967    0.00000000    2.11967967
    135       1  2  0    0.70655989    1.41311978    3.53279944
    136       1  1  0   -0.70655989    3.53279944    2.82623955
    137       1  1  0    0.70655989   -1.41311978   -3.53279944
    138       1  1  0   -2.82623955    3.53279944   -0.70655989
    139       1  1  0   -3.53279944   -1.41311978   -3.53279944
    140       1  2  0    2.82623955    1.41311978    0.00000000
    141       1  1  0   -2.82623955   -0.70655989   -0.70655989
    142       1  1  0    1.41311978    0.00000000    0.00000000
    143       1  1  0    2.82623955   -2.82623955   -2.82623955
    144       1  1  0    2.82623955   -1.41311978    1.41311978
    145       1  2  0    0.00000000   -3.53279944    2.11967967
    146       1  2  0   -2.82623955    3.53279944   -2.11967967
    147       1  1  0   -1.41311978   -2.11967967    3.53279944
    148       1  2  0    2.11967967   -2.82623955   -2.11967967
    149       1  2  0   -0.70655989    0.00000000    3.53279944
    150       1  1  0    2.82623955    0.70655989   -3.53279944
    151       1  2  0    0.70655989   -2.82623955   -0.70655989
    152       1  1  0    2.82623955    0.00000000   -2.82623955
    153       1  2  0    0.70655989    3.53279944    0.00000000
    154       1  1  0    3.53279944   -1.41311978    2.11967967
    155       1  2  0    2.11967967    2.82623955    2.11967967
    156       1  1  0    3.53279944   -3.53279944   -2.82623955
    157       1  1  0   -4.23935933    1.41311978    2.82623955
    158       1  1  0   -2.82623955    1.41311978    0.00000000
    159       1  1  0   -2.82623955    2.82623955    2.82623955
    160       1  2  0   -2.11967967    0.70655989   -2.82623955
    161       1  1  0    2.11967967   -0.70655989    2.82623955
    162       1  2  0   -4.23935933   -4.23935933   -4.23935933
    163       1  1  0    2.11967967   -1.41311978   -3.53279944
    164       1  2  0   -3.53279944   -2.82623955   -0.70655989
    165       1  1  0    1.41311978   -3.53279944    3.53279944
    166       1  2  0   -0.70655989   -2.82623955   -2.11967967
    167       1  1  0   -2.82623955    2.82623955   -2.82623955
    168       1  2  0   -2.82623955   -1.41311978    1.41311978
    169       1  2  0    2.82623955    0.00000000    1.41311978
    170       1  1  0    3.53279944   -2.11967967    2.82623955
    171       1  1  0   -4.23935933    2.11967967    0.70655989
    172       1  1  0    1.41311978   -3.53279944   -0.70655989
    173       1  1  0   -0.70655989   -3.53279944   -4.23935933
    174       1  1  0   -1.41311978    3.53279944   -3.53279944
    175       1  1  0   -4.23935933    2.11967967   -0.70655989
    176       1  2  0    0.00000000    2.82623955   -1.41311978
    177       1  1  0   -4.23935933    2.82623955   -1.41311978
    178       1  2  0   -4.23935933    2.11967967    2.11967967
    179       1  1  0   -4.23935933   -1.41311978   -1.41311978
    180       1  1  0    2.82623955   -4.23935933    2.82623955
    181       1  1  0   -4.23935933    0.70655989    2.11967967
    182       1  1  0    1.41311978   -2.82623955    1.41311978
    183       1  1  0    1.41311978   -4.23935933   -4.23935933
    184       1  1  0   -2.11967967   -1.41311978   -0.70655989
    185       1  2  0   -4.23935933   -1.41311978   -4.23935933
    186       1  1  0    0.00000000   -1.41311978    1.41311978
    187       1  2  0    0.00000000   -2.82623955    1.41311978
    188       1  1  0    2.11967967    1.41311978    2.11967967
    189       1  2  0    2.11967967   -1.41311978    2.11967967
    190       1  1  0   -4.23935933    2.11967967   -3.53279944
    191       1  2  0   -2.11967967   -0.70655989    2.82623955
    192       1  2  0   -3.53279944   -4.23935933   -3.53279944
    193       1  2  0   -2.82623955    0.00000000   -4.23935933
    194       1  2  0   -0.70655989    2.11967967   -4.23935933
    195       1  2  0   -3.53279944    2.82623955    0.70655989
    196       1  2  0   -2.82623955    3.53279944    2.11967967
    197       1  1  0    3.53279944    2.11967967   -1.41311978
    198       1  2  0    0.00000000    0.70655989    2.11967967
    199       1  1  0   -1.41311978    1.41311978    0.00000000
    200       1  1  0   -1.41311978   -3.53279944   -0.70655989
    201       1  1  0    3.53279944   -1.41311978   -2.11967967
    202       1  2  0   -0.70655989   -2.82623955    3.53279944
    203       1  1  0   -2.82623955   -2.82623955    0.00000000
    204       1  1  0   -3.53279944   -3.53279944   -1.41311978
    205       1  2  0   -2.82623955   -2.11967967   -3.53279944
    206       1  1  0   -1.41311978   -1.41311978    0.00000000
    207       1  2  0   -2.11967967   -2.82623955    0.70655989
    208       1  1  0    3.53279944   -0.70655989    2.82623955
    209       1  1  0    2.82623955   -2.11967967    3.53279944
    210       1  1  0    0.70655989    2.11967967   -2.82623955
    211       1  2  0    3.53279944    1.41311978   -3.53279944
    212       1  2  0   -1.41311978   -2.82623955   -4.23935933
    213       1  1  0   -2.11967967    0.00000000    3.53279944
    214       1  2  0   -4.23935933   -2.82623955    2.82623955
    215       1  2  0    3.53279944   -2.82623955    3.53279944
    216       1  1  0   -2.11967967    2.11967967    0.00000000
    217       1  2  0   -4.23935933   -2.82623955   -2.82623955
    218       1  2  0   -3.53279944    3.53279944    1.41311978
    219       1  2  0    0.70655989    2.11967967   -1.41311978
    220       1  2  0    1.41311978    0.00000000    2.82623955
    221       1  2  0    1.41311978    2.82623955    0.00000000
    222       1  1  0    1.41311978   -1.41311978   -1.41311978
    223       1  1  0   -0.70655989   -1.41311978   -0.70655989
    224       1  2  0    2.11967967    2.82623955    3.53279944
    225       1  2  0    2.82623955    2.11967967    2.11967967
    226       1  2  0    3.53279944    2.82623955    0.70655989
    227       1  2  0   -2.82623955    2.11967967   -2.11967967
    228       1  2  0   -4.23935933   -1.41311978    0.00000000
    229       1  1  0    2.82623955   -0.70655989   -3.53279944
    230       1  2  0    3.53279944    3.53279944    2.82623955
    231       1  1  0   -2.11967967   -3.53279944    0.00000000
    232       1  1  0    2.11967967   -1.41311978    3.53279944
    233       1  1  0    2.82623955   -2.11967967   -3.53279944
    234       1  1  0    2.82623955   -3.53279944    3.53279944
    235       1  1  0   -0.70655989   -0.70655989   -2.82623955
    236       1  2  0    2.11967967   -0.70655989   -4.23935933
    237       1  1  0    0.00000000   -4.23935933   -1.41311978
    238       1  1  0   -3.53279944    1.41311978    2.11967967
    239       1  2  0    1.41311978    0.70655989   -3.53279944
    240       1  2  0    2.82623955    2.82623955    1.41311978
    241       1  1  0   -3.53279944   -0.70655989   -1.41311978
    242       1  1  0    1.41311978    2.82623955    1.41311978
    243       1  2  0   -2.82623955   -0.70655989    0.70655989
    244       1  2  0   -2.82623955   -3.53279944    3.53279944
    245       1  2  0    3.53279944    0.70655989   -2.82623955
    246       1  1  0    0.70655989   -4.23935933    0.70655989
    247       1  2  0   -3.53279944    0.00000000    0.70655989
    248       1  2  0   -2.11967967    3.53279944   -4.23935933
    249       1  1  0    2.11967967   -2.11967967    1.41311978
    250       1  2  0    0.00000000    2.82623955    0.00000000
    251       1  2  0    2.11967967   -0.70655989   -2.82623955
    252       1  2  0    3.53279944   -2.82623955    2.11967967
    253       1  2  0   -0.70655989    2.11967967    2.82623955
    254       1  1  0   -4.23935933   -0.70655989    2.11967967
    255       1  2  0   -2.82623955   -0.70655989    3.53279944
    256       1  1  0    1.41311978   -2.82623955   -2.82623955
    257       1  2  0    0.70655989   -2.11967967   -1.41311978
    258       1  1  0    3.53279944    0.00000000   -0.70655989
    259       1  1  0    3.53279944    1.41311978    0.70655989
    260       1  1  0   -3.53279944    2.82623955   -0.70655989
    261       1  2  0    3.53279944    0.00000000   -2.11967967
    262       1  2  0    1.41311978    2.82623955    2.82623955
    263       1  1  0   -3.53279944    2.82623955   -3.53279944
    264       1  1  0   -1.41311978   -3.53279944    2.11967967
    265       1  2  0    0.00000000    3.53279944    0.70655989
    266       1  2  0    1.41311978    0.00000000   -4.23935933
    267       1  2  0    2.82623955   -4.23935933   -1.41311978
    268       1  2  0   -2.82623955   -3.53279944   -2.11967967
    269       1  1  0   -3.53279944    0.70655989    2.82623955
    270       1  1  0    1.41311978   -2.11967967   -0.70655989
    271       1  1  0    2.82623955   -1.41311978   -4.23935933
    272       1  1  0    2.11967967    0.70655989    1.41311978
    273       1  2  0    0.00000000    0.70655989   -3.53279944
    274       1  2  0    3.53279944    3.53279944    1.41311978
    275       1  2  0    0.00000000    0.70655989    0.70655989
    276       1  2  0   -0.70655989   -0.70655989   -1.41311978
    277       1  1  0    2.11967967   -4.23935933   -3.53279944
    278       1  2  0    0.00000000   -1.41311978   -1.41311978
    279       1  2  0   -2.11967967    0.70655989    2.82623955
    280       1  2  0    2.82623955   -0.70655989    0.70655989
    281       1  2  0    3.53279944    2.82623955   -2.11967967
    282       1  2  0   -2.82623955    0.70655989   -0.70655989
    283       1  2  0    1.41311978   -2.11967967    2.11967967
    284       1  2  0    0.00000000   -0.70655989    3.53279944
    285       1  1  0    2.11967967    1.41311978    3.53279944
    286       1  1  0    1.41311978   -2.11967967    0.70655989
    287       1  1  0    2.11967967    0.00000000   -2.11967967
    288       1  2  0   -1.41311978    1.41311978    1.41311978
    289       1  2  0    2.82623955   -4.23935933   -2.82623955
    290       1  2  0    1.41311978    0.70655989    0.70655989
    291       1  1  0   -2.11967967    1.41311978    3.53279944
    292       1  2  0   -2.11967967   -2.11967967    1.41311978
    293       1  1  0   -2.11967967   -0.70655989   -4.23935933
    294       1  1  0    1.41311978   -3.53279944   -2.11967967
    295       1  2  0   -2.82623955   -2.82623955   -4.23935933
    296       1  2  0   -1.41311978   -4.23935933    0.00000000
    297       1  2  0   -2.11967967    1.41311978    2.11967967
    298       1  1  0   -1.41311978    0.00000000   -1.41311978
    299       1  1  0    3.53279944    0.00000000    2.11967967
    300       1  2  0    3.53279944    2.11967967    0.00000000
    301       1  1  0   -1.41311978   -3.53279944   -3.53279944
    302       1  2  0    0.70655989   -2.82623955   -3.53279944
    303       1  2  0   -2.11967967   -2.11967967    2.82623955
    304       1  2  0   -0.70655989   -2.82623955   -3.53279944
    305       1  1  0   -0.70655989   -2.11967967   -2.82623955
    306       1  1  0    1.41311978    2.11967967    2.11967967
    307       1  2  0    1.41311978   -1.41311978   -4.23935933
    308       1  2  0    3.53279944    1.41311978    3.53279944
    309       1  1  0   -1.41311978    1.41311978   -2.82623955
    310       1  1  0   -2.11967967    2.11967967   -2.82623955
    311       1  1  0    0.00000000   -3.53279944   -0.70655989
    312       1  2  0    2.82623955    0.70655989   -0.70655989
    313       1  1  0    1.41311978    0.70655989    3.53279944
    314       1  1  0    2.82623955   -3.53279944    0.70655989
    315       1  1  0   -2.82623955   -0.70655989    2.11967967
    316       1  2  0    0.70655989   -4.23935933    2.11967967
    317       1  1  0    1.41311978   -2.11967967    3.53279944
    318       1  2  0   -2.82623955   -0.70655989   -3.53279944
    319       1  1  0    0.70655989    0.70655989   -4.23935933
    320       1  2  0   -4.23935933    0.00000000   -2.82623955
    321       1  1  0   -3.53279944   -1.41311978    2.11967967
    322       1  2  0   -2.11967967   -2.11967967   -4.23935933
    323       1  2  0   -1.41311978    2.82623955   -1.41311978
    324       1  2  0   -0.70655989    0.70655989   -2.82623955
    325       1  1  0   -1.41311978    0.00000000    1.41311978
    326       1  1  0    2.82623955    0.70655989    2.11967967
    327       1  1  0    0.70655989   -1.41311978   -0.70655989
    328       1  2  0   -3.53279944    2.82623955    2.11967967
    329       1  1  0   -2.82623955    1.41311978   -1.41311978
    330       1  1  0   -3.53279944   -0.70655989   -2.82623955
    331       1  2  0    2.82623955    0.00000000    0.00000000
    332       1  2  0   -2.82623955    1.41311978   -2.82623955
    333       1  2  0   -2.11967967    0.00000000   -3.53279944
    334       1  2  0   -1.41311978    0.00000000   -2.82623955
    335       1  1  0   -3.53279944   -2.82623955   -3.53279944
    336       1  2  0    2.82623955   -2.11967967   -2.11967967
    337       1  2  0   -0.70655989    2.82623955   -0.70655989
    338       1  2  0    0.00000000   -4.23935933    1.41311978
    339       1  2  0    0.00000000    1.41311978    0.00000000
    340       1  2  0    2.82623955   -2.82623955    1.41311978
    341       1  1  0   -2.82623955   -2.82623955    1.41311978
    342       1  2  0    0.00000000   -3.53279944   -3.53279944
    343       1  1  0    3.53279944   -0.70655989   -2.82623955
    344       1  1  0    0.00000000    2.82623955    1.41311978
    345       1  1  0   -3.53279944    2.11967967    2.82623955
    346       1  1  0    2.11967967   -3.53279944    2.82623955
    347       1  1  0   -3.53279944    3.53279944   -1.41311978
    348       1  2  0   -4.23935933   -4.23935933   -1.41311978
    349       1  2  0   -0.70655989    2.82623955   -3.53279944
    350       1  1  0    0.70655989   -0.70655989   -4.23935933
    351       1  2  0   -4.23935933   -0.70655989   -0.70655989
    352       1  1  0    0.70655989    3.53279944   -2.82623955
    353       1  1  0    2.82623955    0.70655989    3.53279944
    354       1  2  0   -2.82623955    0.00000000   -2.82623955
    355       1  1  0   -0.70655989    0.00000000   -0.70655989
    356       1  1  0    0.70655989    1.41311978   -2.11967967
    357       1  1  0   -1.41311978    2.11967967    0.70655989
    358       1  2  0    0.00000000    2.82623955   -4.23935933
    359       1  1  0    0.70655989    1.41311978   -3.53279944
    360       1  2  0    0.70655989    0.70655989    2.82623955
    361       1  2  0   -0.70655989    1.41311978    0.70655989
    362       1  2  0   -3.53279944   -2.11967967   -4.23935933
    363       1  1  0    0.70655989   -2.11967967    2.82623955
    364       1  2  0   -2.11967967    3.53279944    1.41311978
    365       1  2  0   -2.82623955    2.82623955    1.41311978
    366       1  1  0    0.70655989    0.70655989    1.41311978
    367       1  2  0   -2.11967967    3.53279944   -1.41311978
    368       1  1  0    0.00000000    3.53279944   -0.70655989
    369       1  1  0   -2.11967967    0.70655989    0.00000000
    370       1  1  0   -1.41311978    0.70655989   -3.53279944
    371       1  1  0   -0.70655989   -3.53279944    1.41311978
    372       1  1  0   -0.70655989    0.70655989    1.41311978
    373       1  2  0   -1.41311978   -0.70655989   -0.70655989
    374       1  1  0   -3.53279944    2.82623955    3.53279944
    375       1  1  0    2.11967967    2.82623955   -2.11967967
    376       1  1  0   -4.23935933   -3.53279944    3.53279944
    377       1  2  0   -0.70655989    2.11967967    1.41311978
    378       1  1  0   -2.11967967   -0.70655989    1.41311978
    379       1  2  0   -4.23935933    0.00000000    2.82623955
    380       1  1  0   -3.53279944    0.00000000   -0.70655989
    381       1  1  0    1.41311978   -2.82623955    0.00000000
    382       1  2  0    1.41311978    3.53279944   -0.70655989
    383       1  1  0   -2.82623955    3.53279944   -3.53279944
    384       1  1  0   -4.23935933   -2.11967967    0.70655989
    385       1  2  0   -4.23935933    3.53279944   -2.11967967
    386       1  1  0    2.82623955    1.41311978   -1.41311978
    387       1  2  0    2.11967967   -1.41311978    0.70655989
    388       1  1  0   -1.41311978   -4.23935933    1.41311978
    389       1  2  0   -0.70655989   -4.23935933    3.53279944
    390       1  1  0    2.82623955   -2.82623955    0.00000000
    391       1  2  0   -2.82623955   -4.23935933   -4.23935933
    392       1  2  0   -1.41311978    3.53279944    0.70655989
    393       1  1  0    0.00000000    3.53279944    3.53279944
    394       1  1  0    0.00000000    2.11967967    0.70655989
    395       1  1  0    2.11967967    3.53279944   -4.23935933
    396       1  2  0    3.53279944    0.70655989    2.82623955
    397       1  2  0   -2.82623955   -2.82623955    2.82623955
    398       1  2  0    2.11967967   -4.23935933    2.11967967
    399       1  2  0    1.41311978    0.00000000    1.41311978
    400       1  1  0    0.70655989   -0.70655989    1.41311978
    401       1  1  0    1.41311978   -1.41311978    2.82623955
    402       1  1  0    0.00000000   -2.82623955   -2.82623955
    403       1  1  0    0.00000000    1.41311978    1.41311978
    404       1  1  0    0.70655989    0.00000000   -3.53279944
    405       1  2  0    0.00000000   -2.11967967   -3.53279944
    406       1  1  0    1.41311978   -2.82623955   -4.23935933
    407       1  1  0   -2.82623955    2.11967967    2.11967967
    408       1  1  0   -3.53279944   -0.70655989    0.00000000
    409       1  1  0   -1.41311978   -2.11967967   -2.11967967
    410       1  1  0    3.53279944   -1.41311978   -0.70655989
    411       1  2  0    2.82623955    0.00000000   -1.41311978
    412       1  1  0   -2.11967967    2.82623955    0.70655989
    413       1  1  0    0.70655989   -4.23935933   -3.53279944
    414       1  1  0    1.41311978    0.00000000   -2.82623955
    415       1  1  0   -3.53279944    1.41311978    3.53279944
    416       1  2  0    2.11967967   -2.82623955   -0.70655989
    417       1  2  0   -0.70655989   -1.41311978    3.53279944
    418       1  2  0   -2.82623955   -1.41311978    2.82623955
    419       1  2  0   -0.70655989   -0.70655989    1.41311978
    420       1  2  0   -2.82623955   -2.11967967   -0.70655989
    421       1  1  0   -3.53279944   -0.70655989    1.41311978
    422       1  2  0    2.82623955    0.70655989    0.70655989
    423       1  1  0   -0.70655989   -0.70655989    2.82623955
    424       1  1  0    3.53279944    2.11967967    2.82623955
    425       1  1  0   -1.41311978    0.70655989   -0.70655989
    426       1  2  0    1.41311978   -1.41311978    0.00000000
    427       1  1  0    2.82623955   -3.53279944    2.11967967
    428       1  1  0   -0.70655989    2.11967967   -2.82623955
    429       1  2  0   -4.23935933   -4.23935933   -2.82623955
    430       1  2  0   -0.70655989    2.82623955   -2.11967967
    431       1  1  0    0.70655989    2.82623955   -3.53279944
    432       1  1  0    2.82623955    1.41311978   -2.82623955
    433       1  2  0   -0.70655989   -0.70655989    0.00000000
    434       1  2  0   -1.41311978    0.70655989    2.11967967
    435       1  1  0    2.11967967   -0.70655989    1.41311978
    436       1  2  0   -4.23935933   -1.41311978    2.82623955
    437       1  1  0   -2.82623955    3.53279944    0.70655989
    438       1  1  0    3.53279944   -2.11967967   -2.82623955
    439       1  1  0   -3.53279944    0.00000000    3.53279944
    440       1  1  0    0.70655989   -1.41311978    0.70655989
    441       1  1  0    2.82623955   -2.82623955   -4.23935933
    442       1  1  0   -1.41311978    2.11967967   -0.70655989
    443       1  1  0    0.70655989    3.53279944   -1.41311978
    444       1  1  0    2.82623955    2.11967967   -0.70655989
    445       1  1  0    2.82623955   -1.41311978   -1.41311978
    446       1  1  0    3.53279944   -2.82623955   -2.11967967
    447       1  2  0    2.82623955    0.00000000    2.82623955
    448       1  2  0   -4.23935933   -2.11967967   -0.70655989
    449       1  1  0   -0.70655989   -2.82623955   -0.70655989
    450       1  1  0   -3.53279944    2.11967967   -2.82623955
    451       1  2  0   -4.23935933   -0.70655989   -2.11967967
    452       1  1  0    0.00000000   -0.70655989   -0.70655989
    453       1  2  0    2.11967967    0.70655989   -2.82623955
    454       1  2  0    0.70655989    0.00000000   -2.11967967
    455       1  1  0   -1.41311978   -2.82623955   -1.41311978
    456       1  2  0   -2.11967967    3.53279944    0.00000000
    457       1  2  0    0.00000000   -2.11967967    3.53279944
    458       1  1  0   -2.11967967   -1.41311978    3.53279944
    459       1  1  0   -3.53279944   -3.53279944   -4.23935933
    460       1  2  0   -1.41311978    2.82623955    0.00000000
    461       1  2  0    2.82623955    3.53279944    0.70655989
    462       1  2  0    2.82623955   -3.53279944   -0.70655989
    463       1  1  0    3.53279944   -3.53279944   -4.23935933
    464       1  1  0   -2.82623955   -3.53279944    0.70655989
    465       1  1  0    2.11967967   -0.70655989    0.00000000
    466       1  1  0    2.11967967    2.11967967   -4.23935933
    467       1  2  0    0.70655989   -2.82623955    2.11967967
    468       1  2  0    2.82623955    3.53279944   -2.11967967
    469       1  2  0    0.70655989   -0.70655989    2.82623955
    470       1  2  0    3.53279944    2.11967967    1.41311978
    471       1  2  0    3.53279944    2.82623955   -0.70655989
    472       1  1  0    2.11967967    2.11967967    0.00000000
    473       1  2  0   -2.11967967   -2.82623955    2.11967967
    474       1  1  0    1.41311978    2.11967967    0.70655989
    475       1  1  0    2.11967967    0.70655989   -1.41311978
    476       1  1  0    2.11967967    2.11967967   -1.41311978
    477       1  2  0    0.00000000   -0.70655989   -2.11967967
    478       1  2  0   -4.23935933    2.82623955   -4.23935933
    479       1  2  0   -1.41311978    2.82623955   -2.82623955
    480       1  2  0    0.70655989    3.53279944   -4.23935933
    481       1  2  0   -3.53279944   -4.23935933    2.11967967
    482       1  1  0   -0.70655989    1.41311978   -0.70655989
    483       1  1  0   -0.70655989    1.41311978    2.11967967
    484       1  2  0   -1.41311978    0.70655989    0.70655989
    485       1  2  0    0.70655989   -1.41311978    2.11967967
    486       1  2  0    0.00000000    2.82623955   -2.82623955
    487       1  1  0    1.41311978   -1.41311978   -2.82623955
    488       1  2  0    2.82623955    3.53279944   -3.53279944
    489       1  2  0    1.41311978    0.70655989    2.11967967
    490       1  1  0   -3.53279944   -4.23935933   -2.11967967
    491       1  1  0    0.00000000    1.41311978   -2.82623955
    492       1  2  0   -4.23935933   -2.82623955   -4.23935933
    493       1  2  0   -2.11967967   -3.53279944    1.41311978
    494       1  1  0   -1.41311978   -2.82623955    0.00000000
    495       1  1  0   -0.70655989   -2.11967967    0.00000000
    496       1  2  0   -2.82623955   -2.82623955   -2.82623955
    497       1  2  0    0.70655989    0.70655989   -2.82623955
    498       1  2  0   -4.23935933    2.11967967    3.53279944
    499       1  1  0    0.00000000    1.41311978    2.82623955
    500       1  1  0    0.70655989    1.41311978    2.11967967
    501       1  2  0   -1.41311978    3.53279944    2.11967967
    502       1  1  0    2.11967967   -3.53279944    1.41311978
    503       1  2  0   -4.23935933    0.70655989    0.70655989
    504       1  2  0    0.00000000    0.00000000   -2.82623955
    505       1  1  0    1.41311978   -3.53279944   -3.53279944
    506       1  1  0   -2.11967967    3.53279944    2.82623955
    507       1  2  0   -0.70655989   -4.23935933   -0.70655989
    508       1  2  0    2.82623955   -0.70655989   -0.70655989
    509       1  1  0    1.41311978    1.41311978   -4.23935933
    510       1  2  0   -0.70655989   -1.41311978    0.70655989
    511       1  2  0    2.11967967    0.70655989    0.00000000
    512       1  2  0    0.70655989   -3.53279944   -1.41311978

Velocities

      1   -0.15577116   -2.15931416   -1.12227278
      2   -0.66156512   -0.48934256   -0.91069167
      3   -0.23637559   -0.52031982   -0.06589762
      4    0.11791891    0.60166244    0.02231683
      5    0.57155076    0.96872597   -0.14200126
      6   -0.33540509   -0.07965429    0.05463678
      7    0.62842468   -1.98975390    1.13355311
      8   -0.42438716    0.68178298    1.11631575
      9    0.07015636   -1.84063906   -0.24953140
     10    0.00408121    0.65955793    0.23907398
     11   -0.61732936    0.33316946   -0.17312253
     12    1.54469381    0.68194413    0.12127300
     13   -0.04027224    0.75610358    0.35351909
     14   -0.43384536   -0.83244268   -0.49268560
     15   -0.21042522   -0.64937108   -1.61503160
     16   -0.51758018   -1.48148411   -0.51047033
     17    0.58862304    0.26387340   -0.14797889
     18    0.09591991    0.49149916    0.05945495
     19   -1.19216008    0.99194363   -1.06610914
     20   -1.24314711    0.12269594    0.42544732
     21   -0.29943157   -0.88679683    0.33241419
     22   -0.11664340    0.39520687    1.01782250
     23    0.30662056   -0.76536893   -1.03544880
     24    1.36869953   -0.72857166    1.13592417
     25    0.31156128   -0.02745296   -0.33077975
     26   -1.71001301   -0.25079781   -1.62474733
     27    1.52298309   -0.58415055    0.52622919
     28    0.11210736    0.42013576   -0.45654878
     29    0.63211869    1.33486191    0.85967681
     30   -1.39529407    0.85922366   -0.62115745
     31    0.21451015   -0.07352645    1.94614153
     32    0.47102280   -0.05953517    0.88841025
     33   -1.51790260    0.32265314    0.94796861
     34   -0.01656260    0.98078621    0.20519223
     35   -0.11919698    0.12268192   -0.78348494
     36   -1.78293311    0.15179952    1.67153814
     37   -0.65113565    0.26689949   -2.20465180
     38    0.19053968    0.27865135    1.45456073
     39   -0.76822583   -0.61533840    0.21959882
     40   -0.91265870   -0.00801884    0.95442256
     41   -1.64497928   -0.36750832    0.28620959
     42   -0.78947665   -0.04239812    0.10833515
     43    1.12349875   -0.36699609    0.45747794
     44   -2.02414538    0.59547796   -1.52104492
     45    0.92239198    0.38807847   -1.11747269
     46    0.59671146   -0.18337913   -0.00314942
     47    0.12550881   -0.08503738    0.09422431
     48   -0.77290900   -0.31905044    0.51961372
     49    0.98499862    0.12204907   -0.91665266
     50    0.30353953   -1.78095698    0.33422720
     51   -1.73681963    0.13410888   -1.15788870
     52    0.39173113   -0.41992988    1.38557461
     53    0.81638809    1.87611640   -0.08842724
     54   -1.01129928    0.02063191   -1.22552558
     55   -0.80859671    0.71583086   -0.44423881
     56   -1.28675154    0.35336382   -0.24439227
     57    1.76114798    1.09346620    2.31170476
     58    0.52474531   -0.25980756   -0.88203318
     59    0.66159274    0.46194548   -0.41925991
     60    0.46299331   -0.13041961    0.10314147
     61    1.74029381    0.37337728   -1.07528099
     62    0.40873101    0.78991341    0.10542375
     63    0.36474637   -1.01664983   -1.19597729
     64    2.18679153   -0.61951098   -0.55510238
     65   -0.06224635    0.43689900   -0.55882095
     66    0.43914538   -0.06868929   -0.63691500
     67   -0.29395805    0.47350053   -1.09060611
     68    0.76104591   -1.61043976   -1.70398475
     69   -1.03284484   -0.25589396    0.13498425
     70    0.12263539   -0.66678854    0.02407010
     71    1.50168848   -0.50068908   -0.21772159
     72   -1.90365037    1.50285701    0.24206994
     73    1.21313925    0.19651265   -0.64718586
     74    1.15638227   -0.86414296    0.36563151
     75   -0.27160658   -1.35988825    0.22655378
     76   -0.13509916    0.24495091    0.04536584
     77   -0.12031213    0.24818753   -1.30391442
     78   -1.02897938   -0.27469394   -1.52642723
     79    1.02672406   -0.38304519    0.82105374
     80   -0.91975622   -1.39870961   -0.60168254
     81    1.82022625   -0.21525914    0.20313573
     82    0.37549035   -0.57330902   -1.08150007
     83    1.01285648   -1.13392498   -1.12808958
     84   -0.13828872   -1.19804756    0.95519157
     85    0.72911653    0.97710743    0.21804729
     86   -0.30109834   -1.01638715    0.06672508
     87   -0.32593938    1.49961808    0.42211417
     88    0.24685647   -0.07160934    0.06131489
     89   -0.59437523    1.30583081    0.53523560
     90   -0.17664261   -0.91056459    0.21807387
     91    0.36212537    0.28101515    1.71064954
     92    0.05282532   -0.41431910   -0.11118435
     93   -0.02717385   -1.12599643    0.09930791
     94   -0.58375941    0.17448800   -0.26641359
     95   -1.42245001   -0.20723990    0.23851040
     96   -1.14033277   -0.56033310    0.33080798
     97   -0.24361479   -0.72876654   -0.07682558
     98   -0.62158927    0.28990970   -1.10933493
     99    1.23831765   -0.28558829    0.90510530
    100   -2.63564408    0.58989959   -0.31980103
    101   -0.09997314    0.70871288    0.35501006
    102    0.81510049    1.27391795    0.28579335
    103    0.90484014    0.33949797   -0.22857368
    104    0.36889970   -1.43637992   -0.21145687
    105   -0.74024439    0.81638409   -0.39719361
    106   -1.81712475   -0.29290420   -0.31607963
    107    0.36315531    0.28037674    0.78061066
    108   -1.42324580   -0.71698335    0.03338568
    109   -0.01071277   -0.81085826    0.74446637
    110    0.90948666   -0.56480857    0.52076885
    111   -1.39996290    0.05748371   -0.49986078
    112    0.32107015   -1.17732138   -1.17358891
    113   -1.30074457    1.34963276    0.67448867
    114    0.00646989    0.43391817   -0.56094017
    115   -0.63962538   -0.12688588    0.45676474
    116    0.75707257    0.01152490   -1.29353793
    117    0.22704408   -1.19742704    0.07458967
    118    0.98459186   -1.56304836    1.10074896
    119   -1.17345841   -0.30131717   -0.47640724
    120   -1.25338266    0.13749003   -0.03408060
    121   -0.53142822   -0.59430194   -0.31318037
    122    0.81811783   -0.04404056    0.67328236
    123   -1.16800232   -1.02063369   -1.04036752
    124   -0.30621835   -2.18883972    0.98337125
    125    1.00584214   -0.27490035   -1.22809861
    126    1.05325480    0.87040738   -0.43444919
    127    0.43653236    0.22567001    1.40785106
    128    0.01977706   -0.02096794   -0.90777018
    129    0.12806572   -0.37326347    0.91151284
    130   -0.56651795   -0.31661013    0.30219830
    131    0.79247390    0.68698374   -0.21347815
    132    2.54065077   -0.16976836   -0.11172366
    133   -1.17895793    0.82547752   -1.20039404
    134    0.74538480    0.97791327    0.92811573
    135   -0.28949181    0.11757508   -0.29572102
    136   -0.00123719   -0.78578493    0.23971121
    137    0.55391690   -0.63113572    0.40444236
    138   -0.50675691   -0.93680385   -0.11214962
    139   -0.94737275   -0.49506926    1.12532496
    140    0.73101639   -1.47758992    0.82584068
    141    0.54676961   -1.49790252    0.60727722
    142   -0.42241803    0.92663944    0.61446180
    143   -0.08985270   -0.42467906   -0.45435645
    144    0.41181825    1.00623882   -0.70542077
    145   -0.81974345    0.51651390   -0.38358199
    146    1.17505955    0.79541339   -1.58838964
    147   -1.05906536   -0.76519237    1.20643183
    148    0.51046739   -1.86231105   -0.90322871
    149   -0.71814571    1.74865738    0.10224367
    150   -0.12235320    0.63416982   -0.96612166
    151    0.28475770    0.02159750    0.35336622
    152    0.12076042   -0.20772653   -0.34226783
    153   -0.22234852    2.33139309    0.97897536
    154   -0.73075478   -0.19448000   -1.35477779
    155   -0.15746807    0.09083723   -1.21793125
    156    1.26856961    0.47980009    0.23219591
    157   -0.07872565    0.95443891    0.01241904
    158    0.12195128   -0.03919477   -1.45843380
    159    0.17783950    0.03660674    0.17059031
    160    0.92229078   -0.65438177    0.85999678
    161   -0.62229818   -0.27299350    0.59723793
    162   -1.19313393    1.19222899    1.22140364
    163   -0.17909713    0.42634853   -0.63100130
    164    1.14610826    0.17624673    1.53436284
    165   -0.99264903    0.74101243   -0.11950858
    166   -0.84470399    0.18998562    0.60541977
    167    1.04397369   -1.00322949   -0.78288563
    168   -0.27422038   -0.83903636    1.20617224
    169   -0.02868557    1.34398738    0.55449720
    170   -0.98828104    0.39512988    0.17445997
    171   -0.54936208   -0.62544348    0.00892645
    172    1.04367919    0.52957537   -0.12815098
    173   -0.54105349   -1.10625527   -2.11225212
    174   -0.25864014    0.66008999    0.78700160
    175    1.00899422    0.84712305   -0.72039887
    176   -0.51655676    0.25767731   -0.41873924
    177   -0.21991229    1.15718033   -0.17053282
    178   -0.23807593   -1.59711795   -1.48070261
    179    1.84446429    0.97097484   -0.70040949
    180   -0.22871619   -1.66053041   -0.40855986
    181   -0.55513361   -1.34555260    0.39941874
    182    0.77383880    1.85738005   -1.29671343
    183    0.28309708   -0.68567267   -1.04654255
    184   -0.77478789    1.61142175   -0.26044687
    185   -0.91277561   -0.20758415   -0.07431136
    186    0.23938422   -0.30237225    1.40104285
    187    1.19755011    0.03488169   -0.57091859
    188   -1.22399591   -0.38525711    0.83092048
    189    0.59673985    0.44902451    1.19261276
    190   -0.77068308   -1.03270096    1.60051927
    191    0.33612147    0.25056180   -0.93230617
    192    0.28115315   -0.34981346   -0.21856247
    193   -0.35342282    0.93430098   -0.99125385
    194    0.45691733    0.91776155   -1.15811066
    195    0.20661567   -1.92650858   -0.04663641
    196    0.67449534    0.22697592    0.79627294
    197    0.59083830    1.52731688   -1.75364021
    198    0.22469946   -1.25421468   -1.24287221
    199    0.05458552   -0.26401500    1.27677806
    200   -1.18923291    0.71460404    1.28535375
    201   -0.48940866    0.37828239   -0.09580292
    202    0.01603393    0.14813375   -0.61431990
    203   -1.80636057   -0.36310769   -0.77614860
    204    0.97623598   -0.39452700   -0.27313202
    205   -1.73936934   -0.45183678    0.02181193
    206   -1.87765620   -0.81045788    0.23010743
    207    0.10208983   -1.25099397    0.83107828
    208   -0.00330836    0.27407150    0.45873983
    209    0.67399247    1.85280806    0.61915150
    210   -0.50579107    0.67231895    0.30709744
    211    0.31029317   -0.06072092   -0.81916553
    212    0.42982245   -0.76082743    0.61801161
    213   -0.00437202    0.17327469   -1.05034986
    214    0.14669711   -0.43846227    0.18063252
    215   -0.36621785   -0.86123617    0.98476322
    216    1.08590035   -0.62747308    0.80468813
    217   -0.49460151    0.39350568    0.02497893
    218   -0.22123154    0.20019461   -1.16918157
    219    0.58964513    1.41715805   -0.55257909
    220    1.49822829   -0.33529814   -0.94420941
    221    0.85302229    0.10680099    1.16262718
    222   -0.19567861   -0.68371618   -0.89047552
    223    0.90305815   -1.21239920    0.38859087
    224   -0.34168343    0.98181359    0.54511761
    225   -0.66045657   -0.06305565    0.01759335
    226    0.34722747    0.69569770   -1.58377284
    227   -0.04986441    0.97519051   -0.66483637
    228    1.52258961    0.40020137   -0.09593619
    229    1.17114198    0.73988033    1.41831641
    230   -1.51050145   -2.30154541    0.99474557
    231    1.59466643   -1.47605535   -0.43831620
    232    0.21128831    0.07126837    0.83550531
    233   -1.20378179   -0.67839304   -0.94695002
    234    1.64027829    1.41484009    1.59970423
    235    0.01123593    0.52318247    1.67405407
    236    0.42695471    0.78276428    0.54785749
    237   -0.73215839    0.74094601    0.31649562
    238    0.95484976   -0.47516572   -0.67129115
    239   -0.68620531   -0.96798244    0.73315128
    240    0.40625724   -0.08759490   -0.93392131
    241   -0.14085990    0.23252038   -0.92133468
    242   -0.83014913   -0.30980249    0.61799304
    243   -1.20813917   -0.96815731    0.11085971
    244   -0.43698099    1.21042000   -0.92308726
    245    0.76310400    0.16351615    1.34844032
    246    0.16240396    0.05261812    0.46019292
    247   -0.14814425   -1.04743490   -0.85243354
    248    0.15616905   -0.93672888    0.80339556
    249   -0.20983347    0.00978968    0.14777898
    250   -0.38302599    0.05175607    0.78180772
    251    0.43268744    0.06365132    0.77853900
    252   -1.29965526    0.97409682    0.20503165
    253    0.33774786    0.42020424    0.58808195
    254   -0.63064354   -0.22949515   -0.26931921
    255    1.29166935    0.10676756    0.04164615
    256    0.76737748    0.17469408    0.25020287
    257    0.65161711   -0.72161592    0.22052267
    258   -1.27310917    0.30238130   -0.73782385
    259    1.11103942    0.27408605   -0.67987829
    260   -0.36807662   -0.05090940   -0.34225784
    261    0.97369220   -0.16553227    0.54463882
    262   -0.24155632   -0.11794246    0.10718146
    263   -0.05218945   -0.56488715    0.58544019
    264   -0.07842848    0.89979674   -0.21826006
    265    1.33232106   -0.52081643   -0.12370282
    266    0.15720960   -0.96145886   -0.77307253
    267    0.71392712   -0.48844344   -1.10328860
    268   -0.25856695   -0.13981861   -1.02208426
    269   -0.18502070   -0.81499364    1.20893719
    270    1.76210663   -0.38648886    0.64600499
    271    1.03627648    0.45719748   -0.61843130
    272    0.01982694   -0.64063730   -0.02705720
    273   -1.09428666   -0.55099571   -0.61273558
    274    0.60362874    0.01924972    0.10268153
    275    1.67685647    0.42895146   -0.52517338
    276    0.26979528    0.05879124   -1.55419557
    277    1.59619936    0.13392637   -0.52126936
    278    0.11311293    0.38516635    0.59915890
    279    0.46372435   -0.68989876   -0.58924137
    280    0.63330075   -0.11992400   -2.18580662
    281   -0.48707383    0.00756414   -0.26085617
    282   -0.94383034    1.87865427    0.70184454
    283   -0.17646076    0.30074338    1.26198400
    284    0.25539086   -0.60512759   -0.66416083
    285   -0.68936528   -0.35948947   -0.13259420
    286   -0.35608838    0.61430108    0.28390671
    287    1.10598845    1.10394280   -0.16481166
    288    0.06353332   -1.09985404    0.20397937
    289    0.04666077    0.29419700    1.04059245
    290    1.37023415   -0.97917509    0.22640473
    291    0.05235006    0.93604353    0.26011458
    292   -0.05044381    1.28563698   -0.26294178
    293   -1.91071088    0.33921915    0.92355308
    294   -0.64894125    0.79197279    1.16293660
    295    0.34779227   -1.36484509    0.40938651
    296    0.24648100    0.67899066   -1.67061072
    297   -0.37938320    1.65091825   -0.07289012
    298   -0.90617747   -0.67125772   -0.72588017
    299   -0.08901818    0.33129184    0.46920548
    300    0.49910719    0.51043564    0.47323470
    301   -1.54960559    1.76001783    1.57232056
    302    0.21120723   -0.17546807    1.43667619
    303    1.29391820   -0.03682607   -0.30494405
    304   -0.71836905   -0.37258139    1.12165370
    305   -1.23629073    0.38625641   -0.03859901
    306    0.24950296   -0.37195763    0.03720805
    307    0.54041540   -0.15435759    0.87914282
    308   -1.21118237   -0.65600469    0.16795756
    309    1.05851260    0.32713670   -0.08922906
    310    0.86587766    0.59626349   -0.73207319
    311   -0.34501924    0.22861923   -1.75414920
    312   -1.77623846    1.18679676    0.02608219
    313   -0.18496782    1.74631890   -0.16127044
    314    0.03336409    0.77858525    0.45251049
    315    0.43697874    0.29502491    1.89821969
    316    0.01985931    0.25873483    0.92996833
    317    1.90041955    0.74074508   -0.00901184
    318    0.00156498   -0.03098297   -1.10507744
    319   -0.66284009   -0.76584048    0.88559170
    320    0.55031847    0.61930004   -0.12447305
    321   -0.83989132   -0.82739533   -0.45631087
    322    0.27319949    0.04059786    0.31043546
    323   -1.19522266    0.27852154   -0.72153665
    324    0.29620593   -0.82417500    1.30212452
    325   -0.50965675   -1.00147615   -0.28079914
    326   -0.90950024    0.36848716    0.49769935
    327   -1.00711990    1.20404781    0.47353113
    328   -0.65899728   -0.63506069    0.64179571
    329    0.10346175   -0.07566287    0.12556361
    330   -0.01731341    0.25369656    1.37010845
    331   -0.53368928   -0.94898293   -1.26119467
    332    0.09813466   -0.18493549    0.84324291
    333    1.48176073   -1.39928623    1.60022740
    334    0.75479772   -1.14425069    0.78058399
    335    0.73606689    0.27382853    0.71081757
    336    0.39491256   -1.45254476   -0.17614600
    337   -0.23962821   -0.78798501    0.64272149
    338   -0.23190304    0.49797095   -1.29609029
    339   -0.80919700   -0.19721738    0.12886899
    340   -1.41331128   -0.79350034    1.43221780
    341    0.25899161    0.43267180   -0.80105451
    342   -1.08615551   -0.22051772    0.04530110
    343    0.75591685    1.45295435   -1.26155643
    344    0.21204322    0.13088242   -0.36900541
    345   -0.28439784   -0.21516506   -1.15334693
    346   -0.35507660   -0.77144755   -0.00323119
    347    0.97199177   -0.47638476   -0.99477680
    348    0.43451712   -0.78856723   -0.67672079
    349    0.18775843    0.16102408    0.40429063
    350   -0.77056980    0.43981779    0.76741663
    351    0.73627875    0.31789044   -0.76729229
    352   -0.50061640   -1.64579324    1.38147118
    353    0.47802499   -0.84622532   -0.56670541
    354    1.34447365    2.34039836    0.54718634
    355   -1.09754616   -1.16406725   -0.47549847
    356   -0.00693042    0.91604706    0.60471565
    357   -0.02410693   -0.34200612    0.16033912
    358    0.06696737    0.71995295    2.06043073
    359    0.61800913    0.15944362   -0.34016293
    360   -0.88356476   -0.47887155   -0.21872655
    361    0.65129849    0.00989517    0.45857351
    362   -1.20985687   -0.05390085    0.25643516
    363   -1.03880148   -0.05800255   -0.89862890
    364   -0.99951255    0.33487877   -0.39512037
    365   -0.69219746    0.33008847    1.43612371
    366   -0.61083033    1.21097701   -0.47599332
    367    0.53189753    0.04882965    0.63993170
    368    0.26185851   -0.35769449    0.11418806
    369    0.16253723   -1.03319454   -0.87862602
    370   -0.00347606   -1.06769776   -1.44652442
    371   -0.51377691   -1.07193356   -1.98644364
    372   -0.88702399   -0.80360533   -0.07463483
    373    0.33869654    0.10649988    1.60876333
    374    2.03256259    1.03745350   -0.36563525
    375    0.54462669   -0.64317649    0.86307458
    376    1.27915680   -0.30642361    0.27424203
    377    0.40611922   -0.31834852   -0.38717842
    378    1.98511928    0.63036774   -0.65417205
    379    0.01288709    0.47548020   -0.62495216
    380   -0.71879044    0.42947800    0.83253475
    381    0.22255866   -0.16737218   -0.07005307
    382   -0.00931840   -0.93230554    0.09310714
    383    0.63090266   -0.27137196    2.61486835
    384    0.21539303   -0.97195802    0.45630026
    385   -1.28725955    1.35759380    0.06587152
    386   -0.93985191    1.05111909   -0.50526738
    387    0.98512515   -0.20515330    0.21915737
    388   -1.18424447   -1.14211110    0.81903087
    389   -0.28718656   -0.73591885   -0.70716268
    390   -0.75705851    1.05707977   -0.39751548
    391    1.42629871    0.38291118    1.64288299
    392    1.53497270    0.55018263    0.70222910
    393    2.06479132   -1.14416006   -0.37040414
    394   -0.57440903   -0.14092082    0.12906644
    395   -1.21498365   -1.71798816   -0.18045592
    396    0.59285392   -0.79590959    0.25821128
    397   -0.57496824    0.93458678   -0.54357671
    398   -0.30860876   -0.73762643   -0.24135382
    399    0.50854645   -0.80194536    0.41839154
    400    1.58579581    0.42949791   -0.17131569
    401    0.73584348    0.56306054    0.64772580
    402    0.41636269    0.31438925   -0.69299184
    403    0.68345161   -1.58861379    0.57370592
    404   -0.44777136    0.20091196    0.18150956
    405   -0.29811761    0.29758249   -0.40020300
    406   -0.22084380    0.20747011   -0.69877994
    407   -0.12013707    0.21669511   -0.63355650
    408    0.34679443   -0.29788847   -1.78553207
    409   -0.13284485    0.03886723    0.25610302
    410   -0.54715079   -0.58113190    1.08686448
    411    1.51108879    0.01302106   -0.36752670
    412    0.65381772    0.39128144    1.95719224
    413   -0.36019229   -0.37156080   -0.27851792
    414    0.29190250    0.61260828    0.13671110
    415   -0.03118866   -1.34823522    0.96450040
    416   -1.64773342   -1.02591464   -1.08762260
    417   -0.74099204    0.24459577   -0.74733808
    418    0.55878805   -0.17259337   -1.38000806
    419    0.65791159   -1.96382856    0.30379235
    420    1.26135131   -0.61336300   -0.14799334
    421    1.22143425   -0.99221118   -3.04182716
    422   -0.35450118   -0.01796944   -0.91269284
    423    0.04074810    1.11370091    0.98748816
    424    0.62334319    0.71228523    0.44361004
    425   -0.56032840    2.05547637    0.90710662
    426    1.78179460   -1.68368439   -0.31264238
    427   -0.31725983    1.14655429    0.06080589
    428    0.21747370    0.18416394   -1.40958662
    429   -0.03826488    0.44532541   -0.03406821
    430   -1.61682834    0.56552115    0.16338246
    431   -0.96429020   -0.03955431   -0.71301507
    432   -0.30043151    1.29525364   -0.66491475
    433   -0.86950750   -0.55624969    0.48272230
    434   -0.69645337    1.52721186    0.37701437
    435    0.45480602    0.32948520    0.26128374
    436    1.04394317    0.50989999    0.08817780
    437   -0.22120229   -0.67409810   -0.38596793
    438   -0.51226366    0.45262780    0.90426584
    439    0.25334431    0.91329029    0.00051906
    440   -0.60812558    0.75626295    0.80485640
    441    0.55001459    0.23997668    0.37499426
    442   -1.16491824    0.32071947    0.79539518
    443    0.46458445    1.86100889    0.44349742
    444    1.00673073   -0.59827246   -0.18658210
    445   -0.79853864    0.85529258   -1.69696656
    446    1.42061837   -1.18980126    0.16327498
    447    0.53387559   -2.75077624    0.75680343
    448   -0.46539977   -0.42825091   -0.85523432
    449    0.73453473    0.93156084    0.98143569
    450   -0.58712597    0.21666248   -0.19750782
    451    1.67789757   -0.06389422    0.74959922
    452    0.69203443    1.98216311   -0.95818315
    453   -0.56850315   -0.23806211    0.12211884
    454    0.90486089    1.85253395   -0.88390119
    455   -0.33088107   -0.09614291   -0.90288778
    456    0.57439073   -0.29805273   -0.09270698
    457    0.65677118    1.55591411    0.55989603
    458   -0.00299162   -0.74778284   -1.20469080
    459    1.09614511   -0.73229969   -0.41710892
    460   -1.00947684    1.69844461   -1.13633655
    461   -0.40765333    0.91506871    0.10751835
    462    1.16837465   -0.60745246   -0.22754860
    463    0.36088059   -0.49560914    1.09728669
    464   -0.66666900   -0.29201802   -0.43055076
    465   -0.32830409   -0.65668375   -1.44418277
    466    0.63381014   -1.08709931    0.21926210
    467    0.47666454    1.14782293    1.72211733
    468    0.45666422    1.56969700    0.90944256
    469   -1.74082227    2.10518501   -0.33811638
    470    0.18602862    1.33742577   -1.22594577
    471   -0.14502356   -0.75327736    0.93954771
    472    0.15969562    0.10828982   -0.78213872
    473    0.98775061   -1.27539569   -0.09232778
    474    0.59902858    1.13206618   -0.45805844
    475    0.58711160   -0.80527184    0.57429692
    476    0.15993251    1.12574352   -0.70841966
    477    0.65008211    0.58816093    0.55463492
    478   -1.09050258    0.63016403   -0.09175572
    479   -0.96104921   -1.17027460    0.54702387
    480   -0.20748260   -1.05186585    0.35521983
    481    0.63429706   -0.65409501   -0.13132194
    482   -1.37484571    1.80731718    0.48586364
    483    0.87259344    1.44354060    0.23520020
    484    1.75382135    0.45730859   -0.30078543
    485   -0.90171554   -0.29032043    1.44981237
    486   -0.05884364    1.03322473    0.02016671
    487    0.48935879   -0.03976094    0.55494831
    488    1.00691025   -0.64331815    0.07147792
    489    2.03869065    0.33964562   -0.86605266
    490   -0.63041517   -0.76698933    1.63408377
    491    0.70834444    1.14431161    1.39989100
    492   -1.18108839   -0.13110576   -0.15600539
    493   -0.56235760    1.60013274    0.34210064
    494    0.98858640    0.95166222    0.16779539
    495   -0.06320327    0.65499903   -1.57860449
    496   -0.70613730   -1.96543588   -0.09144444
    497   -0.77788653    0.07846647    0.19696368
    498    0.48836157    0.33781383    1.04603769
    499    0.10881841    0.72215866   -1.26590770
    500    0.28685218   -0.12108891   -0.05732266
    501    0.47765309    0.94065796    0.30956351
    502    0.42588293    0.78853421   -0.58406957
    503   -0.19982730    0.55555525    0.40351231
    504   -1.93306889   -0.03013168    0.27642378
    505   -1.02628151    0.34166814    0.06129416
    506    1.41165496   -0.03926960   -0.44252212
    507    0.31376871   -1.22656002    1.00582797
    508    2.50731830    1.45393425    0.56686020
    509   -0.77422049   -0.34107448   -0.56853519
    510   -0.08573717   -0.91827338   -0.10099325
    511    0.28054890   -0.37698710    1.01334847
    512   -0.16019634    1.48661380   -0.22993192

